p td 1490 2680
1 1391
1 213
1 571
1 627
1 640
1 842
1 954
1 1016
1 1115
1 1278
1391 303
1391 500
1391 557
1391 667
1391 771
1391 943
1391 1047
2 1392
2 357
2 599
2 637
2 748
2 772
2 935
2 1250
2 1317
1392 106
1392 167
1392 713
1392 975
1392 1023
1392 1120
3 1393
3 275
3 332
3 827
3 856
1393 237
1393 365
1393 807
1393 814
1393 1000
1393 1117
1393 1137
4 1394
4 354
4 762
4 900
4 1275
4 1382
1394 342
1394 1184
1394 1319
5 1395
5 288
5 485
5 617
5 765
5 833
5 1105
5 1134
5 1243
5 1282
1395 116
1395 407
1395 563
1395 1205
1395 1355
6 1396
6 384
6 461
6 499
6 526
6 528
6 663
6 795
6 1288
1396 241
1396 344
1396 615
1396 812
1396 1125
1396 1182
1396 1248
1396 1308
1396 1332
7 1397
7 179
7 269
7 732
7 746
7 972
7 1082
7 1148
1397 387
1397 389
1397 530
1397 1043
1397 1133
1397 1229
1397 1298
1397 1387
8 1398
8 200
8 368
8 420
8 738
8 769
8 916
1398 326
1398 629
1398 837
1398 1085
1398 1135
1398 1180
1398 1327
9 1399
9 1087
9 1170
1399 159
1399 405
1399 993
1399 1079
10 1400
10 105
10 199
10 271
10 321
10 444
10 512
10 708
10 758
10 767
10 801
1400 107
1400 381
1400 385
1400 545
1400 1241
1400 1257
11 1401
11 164
11 621
11 754
11 848
11 947
11 955
11 985
11 1006
11 1149
11 1367
1401 198
1401 283
1401 1174
1401 1179
1401 1200
12 1402
12 343
12 632
12 680
12 780
12 929
12 1165
12 1193
1402 142
1402 189
1402 349
1402 355
1402 367
1402 433
1402 449
1402 583
1402 1222
13 1403
13 309
13 679
13 706
13 1178
1403 687
1403 1378
14 1404
14 218
14 305
14 417
14 549
14 650
14 697
14 811
14 1300
14 1348
1404 747
1404 851
1404 874
1404 1379
15 1405
15 145
15 694
15 757
15 815
15 1183
1405 126
1405 262
1405 292
1405 408
1405 580
1405 664
1405 766
1405 802
1405 910
1405 1028
16 1406
16 659
16 813
16 1068
16 1078
1406 176
1406 386
1406 456
17 1407
17 121
17 257
17 273
17 356
17 626
17 1032
17 1034
17 1175
17 1214
17 1301
17 1329
1407 208
1407 360
1407 379
1407 465
1407 575
1407 605
1407 809
1407 1018
1407 1048
1407 1111
18 1408
18 260
18 601
18 685
18 1365
1408 445
1408 675
1408 693
1408 966
1408 1022
1408 1253
1408 1375
19 1409
19 134
19 174
19 193
19 567
19 1136
19 1159
19 1219
19 1293
1409 642
1409 711
1409 1064
1409 1311
20 1410
20 653
20 816
20 865
20 879
20 1121
20 1209
20 1354
1410 320
1410 409
1410 1346
1410 1384
21 1411
21 249
21 470
21 619
21 662
21 692
21 753
21 880
21 1292
1411 135
1411 294
1411 479
1411 845
1411 876
1411 950
1411 957
1411 1102
1411 1189
1411 1336
22 1412
22 147
22 204
22 337
22 398
22 448
22 483
22 602
22 677
22 820
22 1011
22 1283
1412 115
1412 263
1412 745
1412 810
1412 1055
1412 1260
23 1413
23 180
23 655
23 717
23 1035
1413 242
1413 613
1413 643
1413 846
1413 860
1413 1177
1413 1341
24 1414
24 454
24 649
24 918
24 1065
1414 432
1414 740
25 1415
25 108
25 138
25 157
25 377
25 568
25 573
25 988
25 1054
25 1142
1415 403
1415 604
1415 651
1415 868
1415 1003
1415 1070
1415 1123
1415 1166
1415 1268
26 1416
26 761
26 862
26 869
26 1033
26 1302
1416 168
1416 310
1416 427
1416 826
27 1417
27 220
27 475
27 607
27 647
27 727
27 739
27 768
27 939
27 1190
1417 194
1417 211
1417 216
1417 240
1417 308
1417 431
1417 641
1417 673
1417 709
1417 952
1417 974
1417 1231
1417 1357
28 1418
28 187
28 494
28 783
28 1119
28 1141
1418 514
1418 734
29 1419
29 251
29 282
29 338
29 353
29 534
29 590
29 1020
29 1232
29 1279
1419 133
1419 175
1419 298
1419 300
1419 382
1419 406
1419 486
1419 847
1419 875
1419 1152
1419 1163
30 1420
30 228
30 569
30 676
30 1013
30 1113
30 1188
1420 183
1420 331
1420 701
1420 867
1420 915
31 1421
31 258
31 392
31 505
31 579
31 593
31 707
31 742
31 989
31 1021
31 1083
1421 522
1421 646
1421 648
1421 736
1421 1026
1421 1038
1421 1104
1421 1160
32 1422
32 234
32 325
32 584
32 789
32 904
32 1130
32 1187
32 1258
1422 219
1422 671
1422 704
1422 1096
1422 1220
1422 1236
33 1423
33 299
33 413
33 785
33 823
33 843
33 991
1423 184
1423 287
1423 595
1423 891
1423 1255
1423 1315
34 1424
34 186
34 375
34 506
34 540
34 716
34 720
34 961
34 1126
34 1380
1424 127
1424 129
1424 169
1424 209
1424 315
1424 901
1424 905
1424 1233
1424 1373
35 1425
35 170
35 210
35 217
35 1009
35 1036
1425 359
1425 1129
1425 1370
36 1426
36 388
36 428
36 488
36 764
36 1376
1426 239
1426 796
1426 1110
1426 1132
1426 1207
1426 1324
37 1427
37 255
37 346
37 578
37 1089
1427 226
1427 351
1427 548
1427 562
1427 835
1427 881
1427 1084
1427 1202
38 1428
38 236
38 280
38 319
38 596
38 672
38 1251
38 1287
38 1299
38 1326
1428 302
1428 395
1428 422
1428 908
1428 1291
39 1429
39 111
39 117
39 136
39 284
39 296
39 366
39 606
39 1080
39 1157
39 1161
1429 143
1429 948
1429 1230
1429 1284
40 1430
40 122
40 171
40 435
40 731
40 828
40 932
1430 130
1430 832
1430 902
1430 1158
1430 1213
1430 1309
41 1431
41 222
41 551
41 838
41 925
41 973
41 1343
1431 373
1431 464
1431 770
1431 831
1431 1076
1431 1237
42 1432
42 482
42 503
42 644
42 1352
1432 201
1432 525
1432 656
1432 960
1432 1031
1432 1041
1432 1244
43 1433
43 118
43 245
43 254
43 434
43 638
43 944
43 1256
43 1310
1433 202
1433 250
1433 442
1433 658
1433 666
1433 1042
1433 1128
1433 1150
1433 1271
1433 1363
44 1434
44 423
44 712
44 840
44 921
44 1039
1434 345
1434 806
1434 870
1434 887
1434 936
1434 1061
1434 1323
45 1435
45 665
45 979
45 1386
1435 416
1435 439
1435 453
1435 699
1435 1181
46 1436
46 185
46 728
46 788
46 920
46 1199
46 1289
46 1321
1436 224
1436 230
1436 446
1436 507
1436 1164
1436 1242
47 1437
47 402
47 502
47 1167
47 1389
1437 261
1437 543
1437 616
1437 965
1437 1004
1437 1263
1437 1303
1437 1305
48 1438
48 462
48 516
48 889
48 922
48 983
48 1071
48 1197
48 1238
48 1277
1438 104
1438 276
1438 419
1438 498
1438 532
1438 586
1438 784
1438 927
49 1439
49 793
49 890
49 896
49 1155
49 1198
49 1269
1439 304
1439 440
1439 518
1439 594
1439 633
1439 863
1439 1210
1439 1368
50 1440
50 266
50 313
50 390
50 657
50 737
50 1057
1440 259
1440 274
1440 348
1440 539
1440 614
1440 777
1440 986
51 1441
51 794
51 1168
1441 188
1441 229
1441 688
52 1442
52 312
52 425
52 447
52 513
52 536
52 598
52 926
52 1002
52 1062
52 1114
52 1227
52 1306
1442 150
1442 270
1442 327
1442 850
1442 1239
1442 1249
53 1443
53 341
53 484
53 587
53 597
1443 182
1443 196
1443 529
1443 912
1443 1008
1443 1109
1443 1186
54 1444
54 125
54 181
54 335
54 438
54 1223
54 1280
54 1335
1444 140
1444 429
1444 451
1444 535
1444 670
1444 937
1444 1112
1444 1173
55 1445
55 399
55 554
55 612
55 639
55 743
55 834
55 884
55 951
55 995
55 1063
55 1362
1445 102
1445 161
1445 190
1445 306
1445 369
1445 511
1445 755
1445 1027
1445 1191
56 1446
56 246
56 301
56 459
56 871
56 903
56 913
56 1153
1446 463
1446 628
1446 719
1446 1100
1446 1215
1446 1304
57 1447
57 243
57 410
57 515
57 542
57 987
57 990
57 1247
1447 497
1447 836
1447 1046
1447 1171
58 1448
58 797
58 1127
58 1262
1448 149
1448 158
1448 227
1448 393
1448 418
1448 895
1448 968
1448 1097
59 1449
59 412
59 437
59 520
59 982
59 996
59 1025
1449 195
1449 297
1449 690
60 1450
60 177
60 591
60 756
60 776
60 978
60 1147
1450 128
1450 894
1450 1107
61 1451
61 112
61 623
61 854
61 872
61 906
61 969
61 1265
1451 221
1451 363
1451 1124
1451 1228
1451 1297
62 1452
62 289
62 436
62 1037
62 1058
62 1077
62 1088
62 1195
1452 103
1452 855
1452 1140
1452 1372
63 1453
63 524
63 603
63 635
63 735
63 997
63 1010
63 1040
63 1094
1453 119
1453 293
1453 467
1453 844
1453 899
1453 942
1453 1015
64 1454
64 424
64 555
64 715
64 723
1454 441
1454 759
1454 873
1454 998
1454 1092
65 1455
65 330
65 404
65 645
1455 113
1455 155
1455 324
1455 396
1455 468
1455 504
1455 661
1455 696
1455 744
1455 1017
1455 1208
1455 1295
66 1456
66 307
66 533
66 631
66 724
66 859
66 883
66 1145
66 1246
66 1345
66 1358
1456 350
1456 480
1456 496
1456 517
1456 1012
67 1457
67 295
67 358
67 421
67 443
67 495
67 892
67 1052
67 1267
1457 165
1457 212
1457 572
1457 702
1457 721
1457 1369
68 1458
68 173
68 278
68 981
68 1024
68 1144
68 1377
1458 192
1458 466
1458 1095
1458 1360
69 1459
69 191
69 207
69 316
69 322
69 683
69 691
69 1212
69 1385
1459 146
1459 376
1459 391
1459 471
1459 703
70 1460
70 131
70 163
70 252
70 622
70 864
70 953
70 992
70 1328
1460 581
1460 907
1460 923
1460 1211
1460 1349
71 1461
71 203
71 265
71 1281
1461 1075
1461 1098
1461 1192
1461 1225
1461 1361
72 1462
72 123
72 153
72 751
72 857
72 964
1462 139
1462 144
1462 178
1462 268
1462 372
1462 660
1462 681
1462 1093
1462 1390
73 1463
73 340
73 523
73 609
73 803
73 911
73 999
73 1074
73 1086
1463 151
1463 160
1463 394
1463 636
1463 824
1463 1005
1463 1240
1463 1307
1463 1381
74 1464
74 347
74 476
74 674
74 1081
74 1156
74 1206
1464 124
1464 519
1464 652
1464 684
1464 790
1464 878
1464 994
75 1465
75 452
75 560
75 1259
75 1334
1465 541
1465 547
1465 695
1465 775
1465 822
1465 1056
1465 1333
76 1466
76 577
76 592
76 1050
76 1322
1466 558
1466 700
1466 919
77 1467
77 426
77 492
77 546
77 576
77 722
77 898
77 1185
77 1264
1467 225
1467 450
1467 478
1467 544
1467 618
1467 669
1467 705
1467 714
1467 778
1467 940
1467 962
1467 1313
1467 1331
78 1468
78 491
78 611
78 917
1468 531
1468 1366
79 1469
79 600
79 630
79 792
79 1116
79 1154
79 1194
79 1374
1469 120
1469 290
1469 750
1469 967
1469 1312
1469 1320
1469 1344
80 1470
80 279
80 415
80 460
80 888
1470 730
1470 821
1470 858
1470 866
1470 1101
1470 1294
81 1471
81 109
81 799
81 1221
1471 430
1471 472
1471 510
1471 566
1471 852
1471 924
1471 945
1471 1019
1471 1044
1471 1051
1471 1217
1471 1371
1471 1388
82 1472
82 154
82 162
82 371
82 538
82 1203
82 1272
1472 264
1472 976
1472 1072
1472 1254
1472 1270
1472 1356
83 1473
83 291
83 490
83 501
83 725
83 825
83 970
1473 779
1473 941
1473 1045
1473 1252
1473 1274
84 1474
84 172
84 625
84 678
84 682
84 689
84 1053
1474 156
1474 550
1474 782
1474 958
1474 1342
85 1475
85 206
85 233
85 455
85 668
85 808
85 819
85 1029
1475 137
1475 830
1475 946
1475 1103
1475 1235
1475 1286
1475 1337
86 1476
86 215
86 238
86 763
86 1216
86 1285
86 1351
1476 474
1476 487
1476 489
1476 508
1476 818
1476 949
1476 1204
1476 1234
1476 1245
87 1477
87 197
87 588
87 781
87 1146
87 1196
1477 334
1477 610
1477 710
1477 798
1477 963
1477 1151
1477 1339
1477 1353
88 1478
88 352
88 786
88 805
88 930
1478 101
1478 383
1478 493
1478 564
1478 853
1478 980
1478 1330
89 1479
89 235
89 317
89 414
89 817
89 841
89 897
89 1066
89 1172
1479 114
1479 253
1479 285
1479 397
1479 473
1479 521
1479 553
1479 773
1479 1030
1479 1106
1479 1118
1479 1338
1479 1383
90 1480
90 314
90 361
90 370
90 552
90 804
90 1049
90 1266
90 1347
1480 110
1480 509
1480 559
1480 933
1480 971
1480 1073
1480 1139
91 1481
91 231
91 323
91 380
91 458
91 1108
1481 1176
1481 1273
92 1482
92 885
92 893
92 914
92 1001
1482 364
1482 1169
93 1483
93 336
93 752
93 839
93 909
93 1067
93 1226
93 1359
1483 132
1483 791
1483 877
1483 886
1483 931
1483 977
1483 1276
94 1484
94 247
94 272
94 286
94 400
94 556
94 608
94 741
94 1090
1484 1007
1484 1122
1484 1290
1484 1314
95 1485
95 223
95 267
95 281
95 311
95 401
95 774
95 1069
95 1350
1485 148
1485 166
1485 256
1485 328
1485 339
1485 374
1485 561
1485 787
1485 1143
1485 1261
1485 1364
96 1486
96 362
96 570
96 620
96 1162
1486 152
1486 214
1486 574
1486 726
1486 733
1486 959
1486 1340
97 1487
97 527
97 624
97 1131
97 1296
1487 232
1487 248
1487 329
1487 537
1487 589
1487 634
1487 729
1487 928
1487 1060
1487 1138
1487 1325
98 1488
98 205
98 244
98 333
98 565
98 585
98 654
98 938
98 1091
1488 318
1488 457
1488 481
1488 718
1488 1218
1488 1224
99 1489
99 141
99 477
99 749
99 1316
1489 469
1489 760
1489 800
1489 984
1489 1014
1489 1059
1489 1201
100 1490
100 378
100 686
100 698
100 829
100 849
100 934
100 1099
1490 277
1490 411
1490 582
1490 861
1490 882
1490 956
1490 1318
101 102
101 103
102 103
104 105
104 106
105 106
107 108
107 109
108 109
110 111
110 112
111 112
113 114
113 115
114 115
116 117
116 118
117 118
119 120
119 121
120 121
122 123
122 124
123 124
125 126
125 127
126 127
128 129
128 130
129 130
131 132
131 133
132 133
134 135
134 136
135 136
137 138
137 139
138 139
140 141
140 142
141 142
143 144
143 145
144 145
146 147
146 148
147 148
149 150
149 151
150 151
152 153
152 154
153 154
155 156
155 157
156 157
158 159
158 160
159 160
161 162
161 163
162 163
164 165
164 166
165 166
167 168
167 169
168 169
170 171
170 172
171 172
173 174
173 175
174 175
176 177
176 178
177 178
179 180
179 181
180 181
182 183
182 184
183 184
185 186
185 187
186 187
188 189
188 190
189 190
191 192
191 193
192 193
194 195
194 196
195 196
197 198
197 199
198 199
200 201
200 202
201 202
203 204
203 205
204 205
206 207
206 208
207 208
209 210
209 211
210 211
212 213
212 214
213 214
215 216
215 217
216 217
218 219
218 220
219 220
221 222
221 223
222 223
224 225
224 226
225 226
227 228
227 229
228 229
230 231
230 232
231 232
233 234
233 235
234 235
236 237
236 238
237 238
239 240
239 241
240 241
242 243
242 244
243 244
245 246
245 247
246 247
248 249
248 250
249 250
251 252
251 253
252 253
254 255
254 256
255 256
257 258
257 259
258 259
260 261
260 262
261 262
263 264
263 265
264 265
266 267
266 268
267 268
269 270
269 271
270 271
272 273
272 274
273 274
275 276
275 277
276 277
278 279
278 280
279 280
281 282
281 283
282 283
284 285
284 286
285 286
287 288
287 289
288 289
290 291
290 292
291 292
293 294
293 295
294 295
296 297
296 298
297 298
299 300
299 301
300 301
302 303
302 304
303 304
305 306
305 307
306 307
308 309
308 310
309 310
311 312
311 313
312 313
314 315
314 316
315 316
317 318
317 319
318 319
320 321
320 322
321 322
323 324
323 325
324 325
326 327
326 328
327 328
329 330
329 331
330 331
332 333
332 334
333 334
335 336
335 337
336 337
338 339
338 340
339 340
341 342
341 343
342 343
344 345
344 346
345 346
347 348
347 349
348 349
350 351
350 352
351 352
353 354
353 355
354 355
356 357
356 358
357 358
359 360
359 361
360 361
362 363
362 364
363 364
365 366
365 367
366 367
368 369
368 370
369 370
371 372
371 373
372 373
374 375
374 376
375 376
377 378
377 379
378 379
380 381
380 382
381 382
383 384
383 385
384 385
386 387
386 388
387 388
389 390
389 391
390 391
392 393
392 394
393 394
395 396
395 397
396 397
398 399
398 400
399 400
401 402
401 403
402 403
404 405
404 406
405 406
407 408
407 409
408 409
410 411
410 412
411 412
413 414
413 415
414 415
416 417
416 418
417 418
419 420
419 421
420 421
422 423
422 424
423 424
425 426
425 427
426 427
428 429
428 430
429 430
431 432
431 433
432 433
434 435
434 436
435 436
437 438
437 439
438 439
440 441
440 442
441 442
443 444
443 445
444 445
446 447
446 448
447 448
449 450
449 451
450 451
452 453
452 454
453 454
455 456
455 457
456 457
458 459
458 460
459 460
461 462
461 463
462 463
464 465
464 466
465 466
467 468
467 469
468 469
470 471
470 472
471 472
473 474
473 475
474 475
476 477
476 478
477 478
479 480
479 481
480 481
482 483
482 484
483 484
485 486
485 487
486 487
488 489
488 490
489 490
491 492
491 493
492 493
494 495
494 496
495 496
497 498
497 499
498 499
500 501
500 502
501 502
503 504
503 505
504 505
506 507
506 508
507 508
509 510
509 511
510 511
512 513
512 514
513 514
515 516
515 517
516 517
518 519
518 520
519 520
521 522
521 523
522 523
524 525
524 526
525 526
527 528
527 529
528 529
530 531
530 532
531 532
533 534
533 535
534 535
536 537
536 538
537 538
539 540
539 541
540 541
542 543
542 544
543 544
545 546
545 547
546 547
548 549
548 550
549 550
551 552
551 553
552 553
554 555
554 556
555 556
557 558
557 559
558 559
560 561
560 562
561 562
563 564
563 565
564 565
566 567
566 568
567 568
569 570
569 571
570 571
572 573
572 574
573 574
575 576
575 577
576 577
578 579
578 580
579 580
581 582
581 583
582 583
584 585
584 586
585 586
587 588
587 589
588 589
590 591
590 592
591 592
593 594
593 595
594 595
596 597
596 598
597 598
599 600
599 601
600 601
602 603
602 604
603 604
605 606
605 607
606 607
608 609
608 610
609 610
611 612
611 613
612 613
614 615
614 616
615 616
617 618
617 619
618 619
620 621
620 622
621 622
623 624
623 625
624 625
626 627
626 628
627 628
629 630
629 631
630 631
632 633
632 634
633 634
635 636
635 637
636 637
638 639
638 640
639 640
641 642
641 643
642 643
644 645
644 646
645 646
647 648
647 649
648 649
650 651
650 652
651 652
653 654
653 655
654 655
656 657
656 658
657 658
659 660
659 661
660 661
662 663
662 664
663 664
665 666
665 667
666 667
668 669
668 670
669 670
671 672
671 673
672 673
674 675
674 676
675 676
677 678
677 679
678 679
680 681
680 682
681 682
683 684
683 685
684 685
686 687
686 688
687 688
689 690
689 691
690 691
692 693
692 694
693 694
695 696
695 697
696 697
698 699
698 700
699 700
701 702
701 703
702 703
704 705
704 706
705 706
707 708
707 709
708 709
710 711
710 712
711 712
713 714
713 715
714 715
716 717
716 718
717 718
719 720
719 721
720 721
722 723
722 724
723 724
725 726
725 727
726 727
728 729
728 730
729 730
731 732
731 733
732 733
734 735
734 736
735 736
737 738
737 739
738 739
740 741
740 742
741 742
743 744
743 745
744 745
746 747
746 748
747 748
749 750
749 751
750 751
752 753
752 754
753 754
755 756
755 757
756 757
758 759
758 760
759 760
761 762
761 763
762 763
764 765
764 766
765 766
767 768
767 769
768 769
770 771
770 772
771 772
773 774
773 775
774 775
776 777
776 778
777 778
779 780
779 781
780 781
782 783
782 784
783 784
785 786
785 787
786 787
788 789
788 790
789 790
791 792
791 793
792 793
794 795
794 796
795 796
797 798
797 799
798 799
800 801
800 802
801 802
803 804
803 805
804 805
806 807
806 808
807 808
809 810
809 811
810 811
812 813
812 814
813 814
815 816
815 817
816 817
818 819
818 820
819 820
821 822
821 823
822 823
824 825
824 826
825 826
827 828
827 829
828 829
830 831
830 832
831 832
833 834
833 835
834 835
836 837
836 838
837 838
839 840
839 841
840 841
842 843
842 844
843 844
845 846
845 847
846 847
848 849
848 850
849 850
851 852
851 853
852 853
854 855
854 856
855 856
857 858
857 859
858 859
860 861
860 862
861 862
863 864
863 865
864 865
866 867
866 868
867 868
869 870
869 871
870 871
872 873
872 874
873 874
875 876
875 877
876 877
878 879
878 880
879 880
881 882
881 883
882 883
884 885
884 886
885 886
887 888
887 889
888 889
890 891
890 892
891 892
893 894
893 895
894 895
896 897
896 898
897 898
899 900
899 901
900 901
902 903
902 904
903 904
905 906
905 907
906 907
908 909
908 910
909 910
911 912
911 913
912 913
914 915
914 916
915 916
917 918
917 919
918 919
920 921
920 922
921 922
923 924
923 925
924 925
926 927
926 928
927 928
929 930
929 931
930 931
932 933
932 934
933 934
935 936
935 937
936 937
938 939
938 940
939 940
941 942
941 943
942 943
944 945
944 946
945 946
947 948
947 949
948 949
950 951
950 952
951 952
953 954
953 955
954 955
956 957
956 958
957 958
959 960
959 961
960 961
962 963
962 964
963 964
965 966
965 967
966 967
968 969
968 970
969 970
971 972
971 973
972 973
974 975
974 976
975 976
977 978
977 979
978 979
980 981
980 982
981 982
983 984
983 985
984 985
986 987
986 988
987 988
989 990
989 991
990 991
992 993
992 994
993 994
995 996
995 997
996 997
998 999
998 1000
999 1000
1001 1002
1001 1003
1002 1003
1004 1005
1004 1006
1005 1006
1007 1008
1007 1009
1008 1009
1010 1011
1010 1012
1011 1012
1013 1014
1013 1015
1014 1015
1016 1017
1016 1018
1017 1018
1019 1020
1019 1021
1020 1021
1022 1023
1022 1024
1023 1024
1025 1026
1025 1027
1026 1027
1028 1029
1028 1030
1029 1030
1031 1032
1031 1033
1032 1033
1034 1035
1034 1036
1035 1036
1037 1038
1037 1039
1038 1039
1040 1041
1040 1042
1041 1042
1043 1044
1043 1045
1044 1045
1046 1047
1046 1048
1047 1048
1049 1050
1049 1051
1050 1051
1052 1053
1052 1054
1053 1054
1055 1056
1055 1057
1056 1057
1058 1059
1058 1060
1059 1060
1061 1062
1061 1063
1062 1063
1064 1065
1064 1066
1065 1066
1067 1068
1067 1069
1068 1069
1070 1071
1070 1072
1071 1072
1073 1074
1073 1075
1074 1075
1076 1077
1076 1078
1077 1078
1079 1080
1079 1081
1080 1081
1082 1083
1082 1084
1083 1084
1085 1086
1085 1087
1086 1087
1088 1089
1088 1090
1089 1090
1091 1092
1091 1093
1092 1093
1094 1095
1094 1096
1095 1096
1097 1098
1097 1099
1098 1099
1100 1101
1100 1102
1101 1102
1103 1104
1103 1105
1104 1105
1106 1107
1106 1108
1107 1108
1109 1110
1109 1111
1110 1111
1112 1113
1112 1114
1113 1114
1115 1116
1115 1117
1116 1117
1118 1119
1118 1120
1119 1120
1121 1122
1121 1123
1122 1123
1124 1125
1124 1126
1125 1126
1127 1128
1127 1129
1128 1129
1130 1131
1130 1132
1131 1132
1133 1134
1133 1135
1134 1135
1136 1137
1136 1138
1137 1138
1139 1140
1139 1141
1140 1141
1142 1143
1142 1144
1143 1144
1145 1146
1145 1147
1146 1147
1148 1149
1148 1150
1149 1150
1151 1152
1151 1153
1152 1153
1154 1155
1154 1156
1155 1156
1157 1158
1157 1159
1158 1159
1160 1161
1160 1162
1161 1162
1163 1164
1163 1165
1164 1165
1166 1167
1166 1168
1167 1168
1169 1170
1169 1171
1170 1171
1172 1173
1172 1174
1173 1174
1175 1176
1175 1177
1176 1177
1178 1179
1178 1180
1179 1180
1181 1182
1181 1183
1182 1183
1184 1185
1184 1186
1185 1186
1187 1188
1187 1189
1188 1189
1190 1191
1190 1192
1191 1192
1193 1194
1193 1195
1194 1195
1196 1197
1196 1198
1197 1198
1199 1200
1199 1201
1200 1201
1202 1203
1202 1204
1203 1204
1205 1206
1205 1207
1206 1207
1208 1209
1208 1210
1209 1210
1211 1212
1211 1213
1212 1213
1214 1215
1214 1216
1215 1216
1217 1218
1217 1219
1218 1219
1220 1221
1220 1222
1221 1222
1223 1224
1223 1225
1224 1225
1226 1227
1226 1228
1227 1228
1229 1230
1229 1231
1230 1231
1232 1233
1232 1234
1233 1234
1235 1236
1235 1237
1236 1237
1238 1239
1238 1240
1239 1240
1241 1242
1241 1243
1242 1243
1244 1245
1244 1246
1245 1246
1247 1248
1247 1249
1248 1249
1250 1251
1250 1252
1251 1252
1253 1254
1253 1255
1254 1255
1256 1257
1256 1258
1257 1258
1259 1260
1259 1261
1260 1261
1262 1263
1262 1264
1263 1264
1265 1266
1265 1267
1266 1267
1268 1269
1268 1270
1269 1270
1271 1272
1271 1273
1272 1273
1274 1275
1274 1276
1275 1276
1277 1278
1277 1279
1278 1279
1280 1281
1280 1282
1281 1282
1283 1284
1283 1285
1284 1285
1286 1287
1286 1288
1287 1288
1289 1290
1289 1291
1290 1291
1292 1293
1292 1294
1293 1294
1295 1296
1295 1297
1296 1297
1298 1299
1298 1300
1299 1300
1301 1302
1301 1303
1302 1303
1304 1305
1304 1306
1305 1306
1307 1308
1307 1309
1308 1309
1310 1311
1310 1312
1311 1312
1313 1314
1313 1315
1314 1315
1316 1317
1316 1318
1317 1318
1319 1320
1319 1321
1320 1321
1322 1323
1322 1324
1323 1324
1325 1326
1325 1327
1326 1327
1328 1329
1328 1330
1329 1330
1331 1332
1331 1333
1332 1333
1334 1335
1334 1336
1335 1336
1337 1338
1337 1339
1338 1339
1340 1341
1340 1342
1341 1342
1343 1344
1343 1345
1344 1345
1346 1347
1346 1348
1347 1348
1349 1350
1349 1351
1350 1351
1352 1353
1352 1354
1353 1354
1355 1356
1355 1357
1356 1357
1358 1359
1358 1360
1359 1360
1361 1362
1361 1363
1362 1363
1364 1365
1364 1366
1365 1366
1367 1368
1367 1369
1368 1369
1370 1371
1370 1372
1371 1372
1373 1374
1373 1375
1374 1375
1376 1377
1376 1378
1377 1378
1379 1380
1379 1381
1380 1381
1382 1383
1382 1384
1383 1384
1385 1386
1385 1387
1386 1387
1388 1389
1388 1390
1389 1390
